\ Model Staff Scheduling Problem with Skill Level Constraints
\ LP format - for model browsing. Use MPS format to capture full model detail.
Minimize
  70.06131139613768 x[0,0] + 42.16278416379585 x[0,1]
   + 31.31162693626017 x[0,2] + 58.14906116940914 x[0,3]
   + 93.18723205834098 x[0,4] + 81.88228484546319 x[1,0]
   + 93.02926784421962 x[1,1] + 81.13024517729215 x[1,2]
   + 83.22495370485768 x[1,3] + 13.63940103485858 x[1,4]
   + 11.56033169501808 x[2,0] + 98.0190862505832 x[2,1]
   + 31.26586059502527 x[2,2] + 44.90660047595662 x[2,3]
   + 17.3808892318647 x[2,4] + 61.53993224327792 x[3,0]
   + 81.4823813859128 x[3,1] + 38.86607229600306 x[3,2]
   + 51.41932946426241 x[3,3] + 41.21987212573413 x[3,4]
   + 88.46427041791698 x[4,0] + 95.86847758967151 x[4,1]
   + 88.48059539136439 x[4,2] + 61.34645112505984 x[4,3]
   + 93.56836108925435 x[4,4] + 18.42123174708822 x[5,0]
   + 80.10503458551604 x[5,1] + 67.86205024977743 x[5,2]
   + 25.07320650018637 x[5,3] + 93.41756184159975 x[5,4]
   + 94.76447860016789 x[6,0] + 77.43504517780453 x[6,1]
   + 69.76075278343778 x[6,2] + 18.32275530137985 x[6,3]
   + 27.89555469913174 x[6,4] + 34.9465767207587 x[7,0]
   + 88.10712595390521 x[7,1] + 56.02428814289432 x[7,2]
   + 15.10197769915473 x[7,3] + 84.09242531411302 x[7,4]
   + 92.04889983268173 x[8,0] + 61.8894257947996 x[8,1]
   + 99.29605858257931 x[8,2] + 17.43830352230026 x[8,3]
   + 71.80961752991115 x[8,4] + 54.9878717837008 x[9,0]
   + 64.78274849852409 x[9,1] + 20.36531234582188 x[9,2]
   + 45.80375540522844 x[9,3] + 66.99616181540381 x[9,4]
Subject To
 task_0_shift_0: x[0,0] >= 7.523074565838712
 task_0_shift_1: x[0,1] >= 5.167247009530919
 task_0_shift_2: x[0,2] >= 7.692940085698345
 task_0_shift_3: x[0,3] >= 5.437916062547223
 task_0_shift_4: x[0,4] >= 2.454055199579719
 task_1_shift_0: x[1,0] >= 4.537736211781093
 task_1_shift_1: x[1,1] >= 3.224217731334903
 task_1_shift_2: x[1,2] >= 1.176042803670417
 task_1_shift_3: x[1,3] >= 3.993617522339085
 task_1_shift_4: x[1,4] >= 8.788898559548453
 task_2_shift_0: x[2,0] >= 6.198480340070062
 task_2_shift_1: x[2,1] >= 9.577696703183491
 task_2_shift_2: x[2,2] >= 5.483056459582713
 task_2_shift_3: x[2,3] >= 7.439418014327197
 task_2_shift_4: x[2,4] >= 2.048310157836557
 task_3_shift_0: x[3,0] >= 9.03944713638306
 task_3_shift_1: x[3,1] >= 6.432466800688366
 task_3_shift_2: x[3,2] >= 8.631494840573728
 task_3_shift_3: x[3,3] >= 6.24039211086306
 task_3_shift_4: x[3,4] >= 1.024192733177188
 task_4_shift_0: x[4,0] >= 6.13938888586294
 task_4_shift_1: x[4,1] >= 4.961275306559669
 task_4_shift_2: x[4,2] >= 2.458806145928336
 task_4_shift_3: x[4,3] >= 3.979987540978224
 task_4_shift_4: x[4,4] >= 7.000484713238875
 task_5_shift_0: x[5,0] >= 6.363062070433788
 task_5_shift_1: x[5,1] >= 7.837710684113208
 task_5_shift_2: x[5,2] >= 9.195971336061568
 task_5_shift_3: x[5,3] >= 7.46888156989677
 task_5_shift_4: x[5,4] >= 2.928134749926235
 task_6_shift_0: x[6,0] >= 7.371267855602834
 task_6_shift_1: x[6,1] >= 8.357502191825887
 task_6_shift_2: x[6,2] >= 2.244478301824681
 task_6_shift_3: x[6,3] >= 9.561123721486405
 task_6_shift_4: x[6,4] >= 9.512238608560166
 task_7_shift_0: x[7,0] >= 5.670504221225118
 task_7_shift_1: x[7,1] >= 2.176014954918296
 task_7_shift_2: x[7,2] >= 1.252705382636836
 task_7_shift_3: x[7,3] >= 7.076985662987386
 task_7_shift_4: x[7,4] >= 9.748767010025738
 task_8_shift_0: x[8,0] >= 2.212446638488044
 task_8_shift_1: x[8,1] >= 4.278765451715776
 task_8_shift_2: x[8,2] >= 7.562827796602783
 task_8_shift_3: x[8,3] >= 7.534983856728699
 task_8_shift_4: x[8,4] >= 1.488615571944529
 task_9_shift_0: x[9,0] >= 2.695964124496258
 task_9_shift_1: x[9,1] >= 1.338913999127919
 task_9_shift_2: x[9,2] >= 1.400190497843951
 task_9_shift_3: x[9,3] >= 7.848970867603198
 task_9_shift_4: x[9,4] >= 5.400508861684946
 shift_0_availability: x[0,0] + x[1,0] + x[2,0] + x[3,0] + x[4,0] + x[5,0]
   + x[6,0] + x[7,0] + x[8,0] + x[9,0] <= 9.3290289985906
 shift_1_availability: x[0,1] + x[1,1] + x[2,1] + x[3,1] + x[4,1] + x[5,1]
   + x[6,1] + x[7,1] + x[8,1] + x[9,1] <= 13.98834866286165
 shift_2_availability: x[0,2] + x[1,2] + x[2,2] + x[3,2] + x[4,2] + x[5,2]
   + x[6,2] + x[7,2] + x[8,2] + x[9,2] <= 14.17307257696719
 shift_3_availability: x[0,3] + x[1,3] + x[2,3] + x[3,3] + x[4,3] + x[5,3]
   + x[6,3] + x[7,3] + x[8,3] + x[9,3] <= 14.71884513194937
 shift_4_availability: x[0,4] + x[1,4] + x[2,4] + x[3,4] + x[4,4] + x[5,4]
   + x[6,4] + x[7,4] + x[8,4] + x[9,4] <= 17.69179052912939
 task_0_skill_0: 55.84603559326267 x[0,0] >= 2.371755738905599
 task_0_skill_1: 55.84603559326267 x[0,1] >= 2.371755738905599
 task_0_skill_2: 55.84603559326267 x[0,2] >= 2.371755738905599
 task_0_skill_3: 55.84603559326267 x[0,3] >= 2.371755738905599
 task_0_skill_4: 55.84603559326267 x[0,4] >= 2.371755738905599
 task_1_skill_0: 55.84603559326267 x[1,0] >= 3.970318672821839
 task_1_skill_1: 55.84603559326267 x[1,1] >= 3.970318672821839
 task_1_skill_2: 55.84603559326267 x[1,2] >= 3.970318672821839
 task_1_skill_3: 55.84603559326267 x[1,3] >= 3.970318672821839
 task_1_skill_4: 55.84603559326267 x[1,4] >= 3.970318672821839
 task_2_skill_0: 55.84603559326267 x[2,0] >= 3.116620861290454
 task_2_skill_1: 55.84603559326267 x[2,1] >= 3.116620861290454
 task_2_skill_2: 55.84603559326267 x[2,2] >= 3.116620861290454
 task_2_skill_3: 55.84603559326267 x[2,3] >= 3.116620861290454
 task_2_skill_4: 55.84603559326267 x[2,4] >= 3.116620861290454
 task_3_skill_0: 55.84603559326267 x[3,0] >= 2.75054788388021
 task_3_skill_1: 55.84603559326267 x[3,1] >= 2.75054788388021
 task_3_skill_2: 55.84603559326267 x[3,2] >= 2.75054788388021
 task_3_skill_3: 55.84603559326267 x[3,3] >= 2.75054788388021
 task_3_skill_4: 55.84603559326267 x[3,4] >= 2.75054788388021
 task_4_skill_0: 55.84603559326267 x[4,0] >= 1.994695401130656
 task_4_skill_1: 55.84603559326267 x[4,1] >= 1.994695401130656
 task_4_skill_2: 55.84603559326267 x[4,2] >= 1.994695401130656
 task_4_skill_3: 55.84603559326267 x[4,3] >= 1.994695401130656
 task_4_skill_4: 55.84603559326267 x[4,4] >= 1.994695401130656
 task_5_skill_0: 55.84603559326267 x[5,0] >= 4.701931942193926
 task_5_skill_1: 55.84603559326267 x[5,1] >= 4.701931942193926
 task_5_skill_2: 55.84603559326267 x[5,2] >= 4.701931942193926
 task_5_skill_3: 55.84603559326267 x[5,3] >= 4.701931942193926
 task_5_skill_4: 55.84603559326267 x[5,4] >= 4.701931942193926
 task_6_skill_0: 55.84603559326267 x[6,0] >= 3.987092367699174
 task_6_skill_1: 55.84603559326267 x[6,1] >= 3.987092367699174
 task_6_skill_2: 55.84603559326267 x[6,2] >= 3.987092367699174
 task_6_skill_3: 55.84603559326267 x[6,3] >= 3.987092367699174
 task_6_skill_4: 55.84603559326267 x[6,4] >= 3.987092367699174
 task_7_skill_0: 55.84603559326267 x[7,0] >= 1.856356890112848
 task_7_skill_1: 55.84603559326267 x[7,1] >= 1.856356890112848
 task_7_skill_2: 55.84603559326267 x[7,2] >= 1.856356890112848
 task_7_skill_3: 55.84603559326267 x[7,3] >= 1.856356890112848
 task_7_skill_4: 55.84603559326267 x[7,4] >= 1.856356890112848
 task_8_skill_0: 55.84603559326267 x[8,0] >= 2.17444889461648
 task_8_skill_1: 55.84603559326267 x[8,1] >= 2.17444889461648
 task_8_skill_2: 55.84603559326267 x[8,2] >= 2.17444889461648
 task_8_skill_3: 55.84603559326267 x[8,3] >= 2.17444889461648
 task_8_skill_4: 55.84603559326267 x[8,4] >= 2.17444889461648
 task_9_skill_0: 55.84603559326267 x[9,0] >= 1.76977829430844
 task_9_skill_1: 55.84603559326267 x[9,1] >= 1.76977829430844
 task_9_skill_2: 55.84603559326267 x[9,2] >= 1.76977829430844
 task_9_skill_3: 55.84603559326267 x[9,3] >= 1.76977829430844
 task_9_skill_4: 55.84603559326267 x[9,4] >= 1.76977829430844
Bounds
End
